%%% static parameters %%%
timespan = 1;
Clients_N = [500];
Demand_W = [15];
Lt0 = [4];
Lt1 = [4];
SS_ = [0.85];
DS_D = [20];
K = [200];
MA = [500];
HC = [0.05];
%%% dynamic parameters %%%
lost_ratio_sales_ret_th = 0.0008899983825602929;
lost_ratio_sales_ret_w = 20;
lost_ratio_sales_dis_th = 0.0008090402330321291;
lost_ratio_sales_dis_w = 34;
lost_ratio_sales_fac_th = 0.0004770044421595503;
lost_ratio_sales_fac_w = 31;
stock_customer_MA_mean_relative_th = 0.5727814388145536;
stock_customer_MA_mean_relative_w = 15;
stock_distributor_MA_mean_relative_th = 0.14411671148596272;
stock_distributor_MA_mean_relative_w = 80;
stock_retailer_MA_mean_relative_th = 0.8698737720003463;
stock_retailer_MA_mean_relative_w = 9;
stock_factory_MA_mean_relative_th = 0.8452309818558444;
stock_factory_MA_mean_relative_w = 91;
